NAME : morphed22-2-12
COMMENT : Generated using the function morphInstances from the R-package netgen (Bossek,2015) - Number of clusters: 2 Alpha: 0.5
TYPE : TSP
DIMENSION : 22
EDGE_WEIGHT_TYPE : EUC_2D
NODE_COORD_SECTION
1 24.5650622738 10.2725010324
2 87.8679342472 74.812107449
3 70.4738403039 14.1843503918
4 29.4303819264 25.1655714107
5 27.6018645514 38.2383154978
6 19.7255945962 15.2150117586
7 30.8421966029 30.5621274685
8 78.3886950215 76.7746901517
9 19.9748019026 20.6081065535
10 42.1240863301 93.3186664214
11 67.442594962 93.6804530046
12 88.3999852225 87.1622770139
13 64.4879944379 77.4216389782
14 61.5997969031 96.0413287838
15 56.5015302018 81.2088770664
16 60.7247830658 89.1764726144
17 45.6473440119 39.6880340492
18 51.1058353473 28.0850451948
19 81.6392267537 74.4675053354
20 26.0310739658 36.8556970321
21 52.1705822185 98.1719642414
22 63.7786289084 15.9815986531
EOF
